SumColouring/JavaBacktracker/RandomInstances/24_0.35_2.col
c File: instances/24_0.35_2.col
c
c Description: Random graph of size 24 vertices and P(0.35) of edges between any two vertices.
p col 24 276
e 1 2
e 1 7
e 1 8
e 1 13
e 1 15
e 1 17
e 1 19
e 1 20
e 1 22
e 2 4
e 2 5
e 2 11
e 2 16
e 3 5
e 3 9
e 3 10
e 3 16
e 3 17
e 3 18
e 3 19
e 3 20
e 3 21
e 3 24
e 4 6
e 4 7
e 4 8
e 4 9
e 4 11
e 4 16
e 4 19
e 4 20
e 4 21
e 4 23
e 5 7
e 5 10
e 5 14
e 5 21
e 6 7
e 6 9
e 6 10
e 6 12
e 6 13
e 6 14
e 6 17
e 7 8
e 7 9
e 7 10
e 7 13
e 7 14
e 7 21
e 7 23
e 8 16
e 9 11
e 9 17
e 9 18
e 9 19
e 9 20
e 9 22
e 10 11
e 10 17
e 10 21
e 11 18
e 11 21
e 11 23
e 12 14
e 12 19
e 12 21
e 12 23
e 13 14
e 13 15
e 13 16
e 14 18
e 14 19
e 15 16
e 15 19
e 15 21
e 15 23
e 16 17
e 16 18
e 16 19
e 16 23
e 17 18
e 17 21
e 18 22
e 19 20
e 19 23
e 20 21
e 21 24
e 22 23
e 23 24