SumColouring/MiniZinc model/Experiments/24_0.35_2.col.dzn
% Data file generated from RandomInstances/24_0.35_2.col DIMACS file
size = 24;

chi = 5;

adjacency = [|0,1,0,0,0,0,1,1,0,0,0,0,1,0,1,0,1,0,1,1,0,1,0,0,
|1,0,0,1,1,0,0,0,0,0,1,0,0,0,0,1,0,0,0,0,0,0,0,0,
|0,0,0,0,1,0,0,0,1,1,0,0,0,0,0,1,1,1,1,1,1,0,0,1,
|0,1,0,0,0,1,1,1,1,0,1,0,0,0,0,1,0,0,1,1,1,0,1,0,
|0,1,1,0,0,0,1,0,0,1,0,0,0,1,0,0,0,0,0,0,1,0,0,0,
|0,0,0,1,0,0,1,0,1,1,0,1,1,1,0,0,1,0,0,0,0,0,0,0,
|1,0,0,1,1,1,0,1,1,1,0,0,1,1,0,0,0,0,0,0,1,0,1,0,
|1,0,0,1,0,0,1,0,0,0,0,0,0,0,0,1,0,0,0,0,0,0,0,0,
|0,0,1,1,0,1,1,0,0,0,1,0,0,0,0,0,1,1,1,1,0,1,0,0,
|0,0,1,0,1,1,1,0,0,0,1,0,0,0,0,0,1,0,0,0,1,0,0,0,
|0,1,0,1,0,0,0,0,1,1,0,0,0,0,0,0,0,1,0,0,1,0,1,0,
|0,0,0,0,0,1,0,0,0,0,0,0,0,1,0,0,0,0,1,0,1,0,1,0,
|1,0,0,0,0,1,1,0,0,0,0,0,0,1,1,1,0,0,0,0,0,0,0,0,
|0,0,0,0,1,1,1,0,0,0,0,1,1,0,0,0,0,1,1,0,0,0,0,0,
|1,0,0,0,0,0,0,0,0,0,0,0,1,0,0,1,0,0,1,0,1,0,1,0,
|0,1,1,1,0,0,0,1,0,0,0,0,1,0,1,0,1,1,1,0,0,0,1,0,
|1,0,1,0,0,1,0,0,1,1,0,0,0,0,0,1,0,1,0,0,1,0,0,0,
|0,0,1,0,0,0,0,0,1,0,1,0,0,1,0,1,1,0,0,0,0,1,0,0,
|1,0,1,1,0,0,0,0,1,0,0,1,0,1,1,1,0,0,0,1,0,0,1,0,
|1,0,1,1,0,0,0,0,1,0,0,0,0,0,0,0,0,0,1,0,1,0,0,0,
|0,0,1,1,1,0,1,0,0,1,1,1,0,0,1,0,1,0,0,1,0,0,0,1,
|1,0,0,0,0,0,0,0,1,0,0,0,0,0,0,0,0,1,0,0,0,0,1,0,
|0,0,0,1,0,0,1,0,0,0,1,1,0,0,1,1,0,0,1,0,0,1,0,1,
|0,0,1,0,0,0,0,0,0,0,0,0,0,0,0,0,0,0,0,0,1,0,1,0,
|];